lab10/traveling-salesman/input.txt
0	23 38
1 	37 36
2 	34 28
3 	42 24
4 	6 49
5 	32 33
6 	26 2
7 	3 8
8 	46 47
9 	44 20
10 	17 41
11 	35 12
12 	1 22
13 	15 19
14 	4 13
15 	27 21
16 	50 7
17 	31 30
18 	10 29
19 	0 45
20	82 17
21	59 4
22	24 10
23	18 54
24	72 84
25	65 46
26	25 80
27 	81 16
28	53 88
29	27 44
30 	60 94
31	97 19
32	19 21
33	47 38
34 	77 7
35	44 33
36	22 41
37	34 44
38	71 20
39	49 29
40	14 26
41	81 16
42	21 43
43	91 50
44	9 72
45	44 81
46	42 59
47	4 20
48	91 50
49	71 82