lab10/traveling-salesman/input.txt.tour
535
38
41
27
20
31
43
48
25
49
24
30
28
45
26
44
23
4
19
10
42
36
0
29
37
46
8
33
1
5
17
2
15
32
13
40
18
12
47
14
7
22
6
11
3
35
39
9
16
21
34
